(set-logic ALL)
(declare-fun seed0_key2 () String)
(declare-fun seed0_value2 () String)
(assert (and (or (and (and (and (and (and (and (and (and (and (and (and (not (= (ite (= (str.at seed0_value2 0) "\u{c}") 1 0) 0)) (= (ite (= (str.at seed0_value2 0) "\u{b}") 1 0) 0)) (= (ite (= (str.at seed0_value2 0) "\u{d}") 1 0) 0)) (= (ite (= (str.at seed0_value2 0) "\u{a}") 1 0) 0)) (= (ite (= (str.at seed0_value2 0) "\u{9}") 1 0) 0)) (= (ite (= (str.at seed0_value2 0) " ") 1 0) 0)) (= (ite (= (str.len seed0_value2) 0) 1 0) 0)) (not (= (ite (= (str.indexof seed0_value2 "=" 0) (- 1)) 1 0) 0))) (= (ite (not (= (str.indexof seed0_value2 "=" 0) (- 1))) 1 0) 0)) (= (ite (str.contains seed0_value2 ",") 1 0) 0)) (= (ite (= (str.len seed0_value2) 0) 1 0) 0)) (not (= (ite (= seed0_key2 "cache-control") 1 0) 0))) (xor (str.suffixof (str.++ seed0_key2 "ylKG4PdTeW1ADU") (str.++ seed0_value2 "NM5fm")) (str.prefixof (str.++ seed0_value2 "9uGNKt28mfAHI") (str.++ seed0_value2 "VS5")))) (or (not (= (ite (= seed0_key2 "cache-control") 1 0) 0)) (xor (str.contains (str.++ seed0_value2 "Bz8f3UcgRC7L9khZQVsG") (str.++ seed0_key2 "hvEL")) (str.prefixof (str.++ seed0_key2 "CJTLolwM4h") (str.++ seed0_value2 "jpEMVbg09TtuqXfo8"))))))
(check-sat)
(exit)